NAME: set1_case1_7_20
COMMENT: 380
VEHICLE: 19
TIME: 600
DIMENSION: 20
CAPACITY: 10
DELIVERY_SECTION
0 0 0
1 1 2
2 1 2
3 1 2
4 1 2
5 1 2
6 2 2
7 2 2
8 2 2
9 2 2
10 2 2
11 3 2
12 3 2
13 3 2
14 3 2
15 3 2
16 4 2
17 4 2
18 4 2
19 4 2
20 4 2
21 5 2
22 5 2
23 5 2
24 5 2
25 5 2
26 6 2
27 6 2
28 6 2
29 6 2
30 6 2
31 7 2
32 7 2
33 7 2
34 7 2
35 7 2
36 8 2
37 8 2
38 8 2
39 8 2
40 8 2
41 9 2
42 9 2
43 9 2
44 9 2
45 9 2
46 10 2
47 10 2
48 10 2
49 10 2
50 10 2
51 11 2
52 11 2
53 11 2
54 11 2
55 11 2
56 12 2
57 12 2
58 12 2
59 12 2
60 12 2
61 13 2
62 13 2
63 13 2
64 13 2
65 13 2
66 14 2
67 14 2
68 14 2
69 14 2
70 14 2
71 15 2
72 15 2
73 15 2
74 15 2
75 15 2
76 16 2
77 16 2
78 16 2
79 16 2
80 16 2
81 17 2
82 17 2
83 17 2
84 17 2
85 17 2
86 18 2
87 18 2
88 18 2
89 18 2
90 18 2
91 19 2
92 19 2
93 19 2
94 19 2
95 19 2
PICKUP_SECTION
0 0 0
1 1 1
2 2 1
3 3 1
4 4 1
5 5 1
6 6 1
7 7 1
8 8 1
9 9 1
10 10 1
11 11 1
12 12 1
13 13 1
14 14 1
15 15 1
16 16 1
17 17 1
18 18 1
19 19 1
NODE_SECTION
DISTANCE_SECTION
10 10 10 10 10 10 10 10 10 10 10 10 10 10 10 10 10 10 10 
10 10 10 10 10 10 10 10 10 10 10 10 10 10 10 10 10 10 
10 10 10 10 10 10 10 10 10 10 10 10 10 10 10 10 10 
10 10 10 10 10 10 10 10 10 10 10 10 10 10 10 10 
10 10 10 10 10 10 10 10 10 10 10 10 10 10 10 
10 10 10 10 10 10 10 10 10 10 10 10 10 10 
10 10 10 10 10 10 10 10 10 10 10 10 10 
10 10 10 10 10 10 10 10 10 10 10 10 
10 10 10 10 10 10 10 10 10 10 10 
10 10 10 10 10 10 10 10 10 10 
10 10 10 10 10 10 10 10 10 
10 10 10 10 10 10 10 10 
10 10 10 10 10 10 10 
10 10 10 10 10 10 
10 10 10 10 10 
10 10 10 10 
10 10 10 
10 10 
10 
DEPOT_SECTION
0
EOF